50
    1   204   204
    2   446   446
    3   448   448
    4   319   319
    5   154   154
    6   420   420
    7   363   363
    8   300   300
    9   428   428
   10   406   406
   11   294   294
   12   441   441
   13   301   301
   14    70    70
   15   108   108
   16    60    60
   17   269   269
   18   295   295
   19    70    70
   20    83    83
   21     8     8
   22    95    95
   23   183   183
   24   195   195
   25   196   196
   26   463   463
   27   116   116
   28   242   242
   29    61    61
   30   171   171
   31   301   301
   32   352   352
   33   481   481
   34   358   358
   35   396   396
   36   182   182
   37   497   497
   38   387   387
   39   458   458
   40   106   106
   41   237   237
   42   470   470
   43   344   344
   44   455   455
   45   156   156
   46    52    52
   47   331   331
   48   264   264
   49   465   465
   50   493   493
4664
